src/swarm_exploration/utils/lkh_mtsp_solver/resource/amtsp3_1.atsp
NAME : pairopt
TYPE : ACVRP
DIMENSION : 7
EDGE_WEIGHT_TYPE : EXPLICIT
EDGE_WEIGHT_FORMAT : FULL_MATRIX
CAPACITY : 27562
VEHICLES : 2
EDGE_WEIGHT_SECTION
100000 -100000 -100000 100000 100000 100000 100000 
100000 100000 1000000 2379 1858 398 -384 
100000 1000000 100000 4218 3677 4218 4337 
0 0 0 100000 350 1850 2375 
0 0 0 350 100000 349 1850 
0 0 0 1850 349 100000 350 
0 0 0 2375 1850 350 100000 
DEMAND_SECTION
1 0
2 0
3 0
4 9187
5 9187
6 9187
7 9187
DEPOT_SECTION
1
EOF